NAME : rnd66_20.tsp
TYPE : TSP
DIMENSION : 20
EDGE_WEIGHT_TYPE : EUC_2D
NODE_COORD_SECTION
0 567 590
1 385 291
2 879 806
3 363 409
4 923 599
5 663 800
6 770 827
7 877 878
8 586 989
9 408 388
10 231 966
11 5 138
12 510 861
13 841 365
14 376 314
15 212 342
16 512 328
17 722 924
18 717 536
19 915 455
